1 1:4.6000 2:3.6000 3:1.0000 4:0.2000
1 1:5.7000 2:4.4000 3:1.5000 4:0.4000
-1 1:6.7000 2:3.1000 3:4.4000 4:1.4000
1 1:4.8000 2:3.4000 3:1.6000 4:0.2000
1 1:4.4000 2:3.2000 3:1.3000 4:0.2000
-1 1:6.3000 2:2.5000 3:5.0000 4:1.9000
-1 1:6.4000 2:3.2000 3:4.5000 4:1.5000
1 1:5.2000 2:3.5000 3:1.5000 4:0.2000
1 1:5.0000 2:3.6000 3:1.4000 4:0.2000
1 1:5.2000 2:4.1000 3:1.5000 4:0.1000
-1 1:5.8000 2:2.7000 3:5.1000 4:1.9000
-1 1:6.0000 2:3.4000 3:4.5000 4:1.6000
-1 1:6.7000 2:3.1000 3:4.7000 4:1.5000
1 1:5.4000 2:3.9000 3:1.3000 4:0.4000
1 1:5.4000 2:3.7000 3:1.5000 4:0.2000
-1 1:5.5000 2:2.4000 3:3.7000 4:1.0000
-1 1:6.3000 2:2.8000 3:5.1000 4:1.5000
-1 1:6.4000 2:3.1000 3:5.5000 4:1.8000
-1 1:6.6000 2:3.0000 3:4.4000 4:1.4000
-1 1:7.2000 2:3.6000 3:6.1000 4:2.5000
-1 1:5.7000 2:2.9000 3:4.2000 4:1.3000
-1 1:7.6000 2:3.0000 3:6.6000 4:2.1000
-1 1:5.6000 2:3.0000 3:4.5000 4:1.5000
1 1:5.1000 2:3.5000 3:1.4000 4:0.2000
-1 1:7.7000 2:2.8000 3:6.7000 4:2.0000
-1 1:5.8000 2:2.7000 3:4.1000 4:1.0000
1 1:5.2000 2:3.4000 3:1.4000 4:0.2000
1 1:5.0000 2:3.5000 3:1.3000 4:0.3000
1 1:5.1000 2:3.8000 3:1.9000 4:0.4000
-1 1:5.0000 2:2.0000 3:3.5000 4:1.0000
-1 1:6.3000 2:2.7000 3:4.9000 4:1.8000
1 1:4.8000 2:3.4000 3:1.9000 4:0.2000
1 1:5.0000 2:3.0000 3:1.6000 4:0.2000
1 1:5.1000 2:3.3000 3:1.7000 4:0.5000
-1 1:5.6000 2:2.7000 3:4.2000 4:1.3000
1 1:5.1000 2:3.4000 3:1.5000 4:0.2000
-1 1:5.7000 2:3.0000 3:4.2000 4:1.2000
-1 1:7.7000 2:3.8000 3:6.7000 4:2.2000
1 1:4.6000 2:3.2000 3:1.4000 4:0.2000
-1 1:6.2000 2:2.9000 3:4.3000 4:1.3000
-1 1:5.7000 2:2.5000 3:5.0000 4:2.0000
1 1:5.5000 2:4.2000 3:1.4000 4:0.2000
-1 1:6.0000 2:3.0000 3:4.8000 4:1.8000
-1 1:5.8000 2:2.7000 3:5.1000 4:1.9000
-1 1:6.0000 2:2.2000 3:4.0000 4:1.0000
-1 1:5.4000 2:3.0000 3:4.5000 4:1.5000
-1 1:6.2000 2:3.4000 3:5.4000 4:2.3000
-1 1:5.5000 2:2.3000 3:4.0000 4:1.3000
1 1:5.4000 2:3.9000 3:1.7000 4:0.4000
-1 1:5.0000 2:2.3000 3:3.3000 4:1.0000
-1 1:6.4000 2:2.7000 3:5.3000 4:1.9000
1 1:5.0000 2:3.3000 3:1.4000 4:0.2000
1 1:5.0000 2:3.2000 3:1.2000 4:0.2000
-1 1:5.5000 2:2.4000 3:3.8000 4:1.1000
-1 1:6.7000 2:3.0000 3:5.0000 4:1.7000
1 1:4.9000 2:3.1000 3:1.5000 4:0.2000
-1 1:5.8000 2:2.8000 3:5.1000 4:2.4000
1 1:5.0000 2:3.4000 3:1.5000 4:0.2000
1 1:5.0000 2:3.5000 3:1.6000 4:0.6000
-1 1:5.9000 2:3.2000 3:4.8000 4:1.8000
-1 1:5.1000 2:2.5000 3:3.0000 4:1.1000
-1 1:6.9000 2:3.2000 3:5.7000 4:2.3000
-1 1:6.0000 2:2.7000 3:5.1000 4:1.6000
-1 1:6.1000 2:2.6000 3:5.6000 4:1.4000
-1 1:7.7000 2:3.0000 3:6.1000 4:2.3000
-1 1:5.5000 2:2.5000 3:4.0000 4:1.3000
1 1:4.4000 2:2.9000 3:1.4000 4:0.2000
1 1:4.3000 2:3.0000 3:1.1000 4:0.1000
-1 1:6.0000 2:2.2000 3:5.0000 4:1.5000
-1 1:7.2000 2:3.2000 3:6.0000 4:1.8000
1 1:4.6000 2:3.1000 3:1.5000 4:0.2000
1 1:5.1000 2:3.5000 3:1.4000 4:0.3000
1 1:4.4000 2:3.0000 3:1.3000 4:0.2000
-1 1:6.3000 2:2.5000 3:4.9000 4:1.5000
-1 1:6.3000 2:3.4000 3:5.6000 4:2.4000
1 1:4.6000 2:3.4000 3:1.4000 4:0.3000
-1 1:6.8000 2:3.0000 3:5.5000 4:2.1000
-1 1:6.3000 2:3.3000 3:6.0000 4:2.5000
1 1:4.7000 2:3.2000 3:1.3000 4:0.2000
-1 1:6.1000 2:2.9000 3:4.7000 4:1.4000
-1 1:6.5000 2:2.8000 3:4.6000 4:1.5000
-1 1:6.2000 2:2.8000 3:4.8000 4:1.8000
-1 1:7.0000 2:3.2000 3:4.7000 4:1.4000
-1 1:6.4000 2:3.2000 3:5.3000 4:2.3000
1 1:5.1000 2:3.8000 3:1.6000 4:0.2000
-1 1:6.9000 2:3.1000 3:5.4000 4:2.1000
-1 1:5.9000 2:3.0000 3:4.2000 4:1.5000
-1 1:6.5000 2:3.0000 3:5.2000 4:2.0000
-1 1:5.7000 2:2.6000 3:3.5000 4:1.0000
-1 1:5.2000 2:2.7000 3:3.9000 4:1.4000
-1 1:6.1000 2:3.0000 3:4.6000 4:1.4000
1 1:4.5000 2:2.3000 3:1.3000 4:0.3000
-1 1:6.6000 2:2.9000 3:4.6000 4:1.3000
-1 1:5.5000 2:2.6000 3:4.4000 4:1.2000
1 1:5.3000 2:3.7000 3:1.5000 4:0.2000
-1 1:5.6000 2:3.0000 3:4.1000 4:1.3000
-1 1:7.3000 2:2.9000 3:6.3000 4:1.8000
-1 1:6.7000 2:3.3000 3:5.7000 4:2.1000
1 1:5.1000 2:3.7000 3:1.5000 4:0.4000
-1 1:4.9000 2:2.4000 3:3.3000 4:1.0000
-1 1:6.7000 2:3.3000 3:5.7000 4:2.5000
-1 1:7.2000 2:3.0000 3:5.8000 4:1.6000
1 1:4.9000 2:3.6000 3:1.4000 4:0.1000
-1 1:6.7000 2:3.1000 3:5.6000 4:2.4000
1 1:4.9000 2:3.0000 3:1.4000 4:0.2000
-1 1:6.9000 2:3.1000 3:4.9000 4:1.5000
-1 1:7.4000 2:2.8000 3:6.1000 4:1.9000
-1 1:6.3000 2:2.9000 3:5.6000 4:1.8000
-1 1:5.7000 2:2.8000 3:4.1000 4:1.3000
-1 1:6.5000 2:3.0000 3:5.5000 4:1.8000
-1 1:6.3000 2:2.3000 3:4.4000 4:1.3000
-1 1:6.4000 2:2.9000 3:4.3000 4:1.3000
-1 1:5.6000 2:2.8000 3:4.9000 4:2.0000
-1 1:5.9000 2:3.0000 3:5.1000 4:1.8000
1 1:5.4000 2:3.4000 3:1.7000 4:0.2000
-1 1:6.1000 2:2.8000 3:4.0000 4:1.3000
-1 1:4.9000 2:2.5000 3:4.5000 4:1.7000
1 1:5.8000 2:4.0000 3:1.2000 4:0.2000
-1 1:5.8000 2:2.6000 3:4.0000 4:1.2000
-1 1:7.1000 2:3.0000 3:5.9000 4:2.1000
